cliques=[{0,26,29,46,53,56,93,101,103,136,158,180,189,190,220,227,238,246,247,252,257,258,272,290,307},{1,22,39,41,45,64,85,100,104,118,119,124,129,137,159,175,182,213,251,261,263,265,316,335,340},{2,27,43,64,79,126,128,130,136,137,154,161,194,197,201,208,213,220,234,250,259,300,307,310,335},{3,21,23,41,42,48,66,70,84,88,125,137,147,160,203,215,269,270,281,286,288,298,303,314,319},{1,4,19,39,52,117,145,157,158,160,181,194,195,207,222,234,247,248,268,277,284,285,300,302,305},{5,25,39,50,55,85,87,89,103,118,119,132,133,145,162,171,193,194,216,236,267,294,300,316,323},{6,9,10,38,68,69,91,120,140,142,153,196,198,205,217,224,245,251,253,279,301,317,319,338,339},{7,32,40,101,102,110,117,121,136,140,144,148,149,168,209,212,233,265,300,301,306,317,320,331,341},{8,18,38,54,59,90,98,156,176,177,215,250,292,323,329,342},{6,9,10,38,68,69,91,120,140,142,153,196,198,205,217,224,245,251,253,279,301,317,319,338,339},{6,9,10,38,68,69,91,120,140,142,153,196,198,205,217,224,245,251,253,279,301,317,319,338,339},{0,11,44,74,85,120,123,124,163,167,184,188,228,246,260,267},{12,48,70,72,75,96,100,152,181,183,232,276,295,329,334},{8,13,18,89,131,151,170,198,218,241,254,272,295,317,330},{14,22,102,121,122,136,178,180,185,249,263,266,287,288,321},{15,42,83,136,219,230},{16,50,121,143,286},{17,57},{18,19,20,65,84,86,88,92,94,95,101,105,109,138,139,174,186,211,214,231,242,297,308,316,337},{18,19,20,65,84,86,88,92,94,95,101,105,109,138,139,174,186,211,214,231,242,297,308,316,337},{18,19,20,65,84,86,88,92,94,95,101,105,109,138,139,174,186,211,214,231,242,297,308,316,337},{3,21,23,41,42,48,66,70,84,88,125,137,147,160,203,215,269,270,281,286,288,298,303,314,319},{1,22,39,41,45,64,85,100,104,118,119,124,129,137,159,175,182,213,251,261,263,265,316,335,340},{3,21,23,41,42,48,66,70,84,88,125,137,147,160,203,215,269,270,281,286,288,298,303,314,319},{2,20,24,31,47,64,100,105,106,107,157,182,202,206,223,225,231,239,244,264,271,306,320,321,344},{5,25,39,50,55,85,87,89,103,118,119,132,133,145,162,171,193,194,216,236,267,294,300,316,323},{0,26,29,46,53,56,93,101,103,136,158,180,189,190,220,227,238,246,247,252,257,258,272,290,307},{2,27,43,64,79,126,128,130,136,137,154,161,194,197,201,208,213,220,234,250,259,300,307,310,335},{23,28,38,46,65,71,122,141,156,221,247,275,291,309,325},{0,26,29,46,53,56,93,101,103,136,158,180,189,190,220,227,238,246,247,252,257,258,272,290,307},{30,86,90,117,141,147,156,169,193,211,229,243,304,316,321},{2,20,24,31,47,64,100,105,106,107,157,182,202,206,223,225,231,239,244,264,271,306,320,321,344},{7,32,40,101,102,110,117,121,136,140,144,148,149,168,209,212,233,265,300,301,306,317,320,331,341},{33,68,81,100,138,146,152,159,187,214,235,241,255,261,303,324},{0,34,117,135,146,164,172,179,261,278,293,303,304,305,318},{35,38,51,77,104,125,212,216,230,264,313},{27,36,52,294},{37,47,182,205,244,344},{23,28,38,46,65,71,122,141,156,221,247,275,291,309,325},{5,25,39,50,55,85,87,89,103,118,119,132,133,145,162,171,193,194,216,236,267,294,300,316,323},{7,32,40,101,102,110,117,121,136,140,144,148,149,168,209,212,233,265,300,301,306,317,320,331,341},{3,21,23,41,42,48,66,70,84,88,125,137,147,160,203,215,269,270,281,286,288,298,303,314,319},{3,21,23,41,42,48,66,70,84,88,125,137,147,160,203,215,269,270,281,286,288,298,303,314,319},{2,27,43,64,79,126,128,130,136,137,154,161,194,197,201,208,213,220,234,250,259,300,307,310,335},{44,47,73,87,138,141,151,162,192,196,235,249,261,271,285,318},{1,22,39,41,45,64,85,100,104,118,119,124,129,137,159,175,182,213,251,261,263,265,316,335,340},{0,26,29,46,53,56,93,101,103,136,158,180,189,190,220,227,238,246,247,252,257,258,272,290,307},{2,20,24,31,47,64,100,105,106,107,157,182,202,206,223,225,231,239,244,264,271,306,320,321,344},{3,21,23,41,42,48,66,70,84,88,125,137,147,160,203,215,269,270,281,286,288,298,303,314,319},{43,49,57,60,77,90,156,158,215,273,312,328,334,343},{5,25,39,50,55,85,87,89,103,118,119,132,133,145,162,171,193,194,216,236,267,294,300,316,323},{35,38,51,77,104,125,212,216,230,264,313},{1,4,19,39,52,117,145,157,158,160,181,194,195,207,222,234,247,248,268,277,284,285,300,302,305},{0,26,29,46,53,56,93,101,103,136,158,180,189,190,220,227,238,246,247,252,257,258,272,290,307},{8,18,38,54,59,90,98,156,176,177,215,250,292,323,329,342},{5,25,39,50,55,85,87,89,103,118,119,132,133,145,162,171,193,194,216,236,267,294,300,316,323},{0,26,29,46,53,56,93,101,103,136,158,180,189,190,220,227,238,246,247,252,257,258,272,290,307},{43,49,57,60,77,90,156,158,215,273,312,328,334,343},{20,35,58,65,130,188},{8,18,38,54,59,90,98,156,176,177,215,250,292,323,329,342},{43,49,57,60,77,90,156,158,215,273,312,328,334,343},{61,70,150,250,303,305},{6,9,62,120,127,129,159},{26,63,86,138,192,206},{2,27,43,64,79,126,128,130,136,137,154,161,194,197,201,208,213,220,234,250,259,300,307,310,335},{18,19,20,65,84,86,88,92,94,95,101,105,109,138,139,174,186,211,214,231,242,297,308,316,337},{3,21,23,41,42,48,66,70,84,88,125,137,147,160,203,215,269,270,281,286,288,298,303,314,319},{21,42,67,73,97,123,138,139,157,163,165,166,173,211,214,235,289,299,304,315,318,322,327,332,333},{6,9,10,38,68,69,91,120,140,142,153,196,198,205,217,224,245,251,253,279,301,317,319,338,339},{6,9,10,38,68,69,91,120,140,142,153,196,198,205,217,224,245,251,253,279,301,317,319,338,339},{3,21,23,41,42,48,66,70,84,88,125,137,147,160,203,215,269,270,281,286,288,298,303,314,319},{3,18,71,76,84,102,113,139,140,156,180,193,237,246,263,270,273,275,285,287,291,301,316,324,325},{12,48,70,72,75,96,100,152,181,183,232,276,295,329,334},{21,42,67,73,97,123,138,139,157,163,165,166,173,211,214,235,289,299,304,315,318,322,327,332,333},{0,11,44,74,85,120,123,124,163,167,184,188,228,246,260,267},{12,48,70,72,75,96,100,152,181,183,232,276,295,329,334},{3,18,71,76,84,102,113,139,140,156,180,193,237,246,263,270,273,275,285,287,291,301,316,324,325},{35,38,51,77,104,125,212,216,230,264,313},{49,78,92,94,146,184,186,216,231,239,264,266,267,293,322},{2,27,43,64,79,126,128,130,136,137,154,161,194,197,201,208,213,220,234,250,259,300,307,310,335},{80,82,108,126,150,156,193,211,212,217,232,240,256,274,335},{33,68,81,100,138,146,152,159,187,214,235,241,255,261,303,324},{80,82,108,126,150,156,193,211,212,217,232,240,256,274,335},{4,65,83,91,107,196,219},{18,19,20,65,84,86,88,92,94,95,101,105,109,138,139,174,186,211,214,231,242,297,308,316,337},{5,25,39,50,55,85,87,89,103,118,119,132,133,145,162,171,193,194,216,236,267,294,300,316,323},{18,19,20,65,84,86,88,92,94,95,101,105,109,138,139,174,186,211,214,231,242,297,308,316,337},{5,25,39,50,55,85,87,89,103,118,119,132,133,145,162,171,193,194,216,236,267,294,300,316,323},{18,19,20,65,84,86,88,92,94,95,101,105,109,138,139,174,186,211,214,231,242,297,308,316,337},{5,25,39,50,55,85,87,89,103,118,119,132,133,145,162,171,193,194,216,236,267,294,300,316,323},{8,18,38,54,59,90,98,156,176,177,215,250,292,323,329,342},{6,9,10,38,68,69,91,120,140,142,153,196,198,205,217,224,245,251,253,279,301,317,319,338,339},{18,19,20,65,84,86,88,92,94,95,101,105,109,138,139,174,186,211,214,231,242,297,308,316,337},{0,26,29,46,53,56,93,101,103,136,158,180,189,190,220,227,238,246,247,252,257,258,272,290,307},{18,19,20,65,84,86,88,92,94,95,101,105,109,138,139,174,186,211,214,231,242,297,308,316,337},{18,19,20,65,84,86,88,92,94,95,101,105,109,138,139,174,186,211,214,231,242,297,308,316,337},{0,66,96,107,116,118,143,164,185,199,204,226,237,276,296,311},{21,42,67,73,97,123,138,139,157,163,165,166,173,211,214,235,289,299,304,315,318,322,327,332,333},{8,18,38,54,59,90,98,156,177,176,215,250,292,323,329,342},{0,4,5,30,99,108,150,195,221,232,233,247,266,274,326,334},{2,20,24,31,47,64,100,106,105,107,157,182,202,206,223,225,231,239,244,264,271,306,320,321,344},{0,26,29,46,53,56,93,101,103,136,158,180,189,190,220,227,238,246,247,252,257,258,272,290,307},{7,32,40,101,102,110,117,121,136,140,144,148,149,168,209,212,233,265,300,301,306,317,320,331,341},{5,25,39,50,55,85,87,89,103,118,119,132,133,145,162,171,193,194,216,236,267,294,300,316,323},{1,22,39,41,45,64,85,100,104,118,119,124,129,137,159,175,182,213,251,261,263,265,316,335,340},{18,19,20,65,84,86,88,92,94,95,101,105,109,138,139,174,186,211,214,231,242,297,308,316,337},{2,20,24,31,47,64,100,106,105,107,157,182,202,206,223,225,231,239,244,264,271,306,320,321,344},{2,20,24,31,47,64,100,105,106,107,157,182,202,206,223,225,231,239,244,264,271,306,320,321,344},{19,67,93,108,111,166,197,211,217,228,232,252,262,302,326,330},{18,19,20,65,84,86,88,92,94,95,101,105,109,138,139,174,186,211,214,231,242,297,308,316,337},{7,32,40,101,102,110,117,121,136,140,144,148,149,168,209,212,233,265,300,301,306,317,320,331,341},{19,67,93,108,111,166,197,211,217,228,232,252,262,302,326,330},{1,40,45,86,104,106,112,137,144,191,199,200,218,219,222,231,248,262,268,269,284,286,302,309,336},{3,18,71,76,84,102,113,139,140,156,180,193,237,246,263,270,273,275,285,287,291,301,316,324,325},{38,102,114,119,164,195,224,243,246,262,289,300,328,336},{24,40,41,115,136,143,183,201,203,219,255,317,318,319,343},{0,66,96,107,116,118,143,164,185,199,204,226,237,276,296,311},{7,32,40,101,102,110,117,121,136,140,144,148,149,168,209,212,233,265,300,301,306,317,320,331,341},{5,25,39,50,55,85,87,89,103,118,119,132,133,145,162,171,193,194,216,236,267,294,300,316,323},{5,25,39,50,55,85,87,89,103,118,119,132,133,145,162,171,193,194,216,236,267,294,300,316,323},{6,9,10,38,68,69,91,120,140,142,153,196,198,205,217,224,245,251,253,279,301,317,319,338,339},{7,32,40,101,102,110,117,121,136,140,144,148,149,168,209,212,233,265,300,301,306,317,320,331,341},{23,28,38,46,65,71,122,141,156,221,247,275,291,309,325},{21,42,67,73,97,123,138,139,157,163,165,166,173,211,214,235,289,299,304,315,318,322,327,332,333},{1,22,39,41,45,64,85,100,104,118,119,124,129,137,159,175,182,213,251,261,263,265,316,335,340},{3,21,23,41,42,48,66,70,84,88,125,137,147,160,203,215,269,270,281,286,288,298,303,314,319},{2,27,43,64,79,126,128,130,136,137,154,161,194,197,201,208,213,220,234,250,259,300,307,310,335},{51,103,127,159,161,212,221,233,248,249,262,280,292,308,336,337},{2,27,43,64,79,126,128,130,136,137,154,161,194,197,201,208,213,220,234,250,259,300,307,310,335},{1,22,39,41,45,64,85,100,104,118,119,124,129,137,159,175,182,213,251,261,263,265,316,335,340},{2,27,43,64,79,126,128,130,136,137,154,161,194,197,201,208,213,220,234,250,259,300,307,310,335},{8,13,18,89,131,151,170,198,218,241,254,272,295,317,330},{5,25,39,50,55,85,87,89,103,118,119,132,133,145,162,171,193,194,216,236,267,294,300,316,323},{5,25,39,50,55,85,87,89,103,118,119,132,133,145,162,171,193,194,216,236,267,294,300,316,323},{91,134,161,165,170,200,202,225,226,253,254,264,278,280,312,313},{0,34,117,135,146,164,172,179,261,278,293,303,304,305,318},{2,27,43,64,79,126,128,130,136,137,154,161,194,197,201,208,213,220,234,250,259,300,307,310,335},{3,21,23,41,42,48,66,70,84,88,125,137,147,160,203,215,269,270,281,286,288,298,303,314,319},{18,19,20,65,84,86,88,92,94,95,101,105,109,138,139,174,186,211,214,231,242,297,308,316,337},{18,19,20,65,84,86,88,92,94,95,101,105,109,138,139,174,186,211,214,231,242,297,308,316,337},{7,32,40,101,102,110,117,121,136,140,144,148,149,168,209,212,233,265,300,301,306,317,320,331,341},{44,47,73,87,138,141,151,162,192,196,235,249,261,271,285,318},{6,9,10,38,68,69,91,120,140,142,153,196,198,205,217,224,245,251,253,279,301,317,319,338,339},{0,66,96,107,116,118,143,164,185,199,204,226,237,276,296,311},{7,32,40,101,102,110,117,121,136,140,144,148,149,168,209,212,233,265,300,301,306,317,320,331,341},{5,25,39,50,55,85,87,89,103,118,119,132,133,145,162,171,193,194,216,236,267,294,300,316,323},{0,34,117,135,146,164,172,179,261,278,293,303,304,305,318},{3,21,23,41,42,48,66,70,84,88,125,137,147,160,203,215,269,270,281,286,288,298,303,314,319},{7,32,40,101,102,110,117,121,136,140,144,148,149,168,209,212,233,265,300,301,306,317,320,331,341},{7,32,40,101,102,110,117,121,136,140,144,148,149,168,209,212,233,265,300,301,306,317,320,331,341},{0,4,5,30,99,108,150,195,221,232,233,247,266,274,326,334},{8,13,18,89,131,151,170,198,218,241,254,272,295,317,330},{12,48,70,72,75,96,100,152,181,183,232,276,295,329,334},{6,9,10,38,68,69,91,120,140,142,153,196,198,205,217,224,245,251,253,279,301,317,319,338,339},{2,27,43,64,79,126,128,130,136,137,154,161,194,197,201,208,213,220,234,250,259,300,307,310,335},{25,72,122,155,163,184,213,231,238,240,256,284,311},{3,18,71,76,84,102,113,139,140,156,180,193,237,246,263,270,273,275,285,287,291,301,316,324,325},{2,20,24,31,47,64,100,105,106,107,157,182,202,206,223,225,231,239,244,264,271,306,320,321,344},{0,26,29,46,53,56,93,101,103,136,158,180,189,190,220,227,238,246,247,252,257,258,272,290,307},{1,22,39,41,45,64,85,100,104,118,119,124,129,137,159,175,182,213,251,261,263,265,316,335,340},{3,21,23,41,42,48,66,70,84,88,125,137,147,160,203,215,269,270,281,286,288,298,303,314,319},{2,27,43,64,79,126,128,130,136,137,154,161,194,197,201,208,213,220,234,250,259,300,307,310,335},{5,25,39,50,55,85,87,89,103,118,119,132,133,145,162,171,193,194,216,236,267,294,300,316,323},{21,42,67,73,97,123,138,139,157,163,165,166,173,211,214,235,289,299,304,315,318,322,327,332,333},{0,66,96,107,116,118,143,164,185,199,204,226,237,276,296,311},{21,42,67,73,97,123,138,139,157,163,165,166,173,211,214,235,289,299,304,315,318,322,327,332,333},{21,42,67,73,97,123,138,139,157,163,165,166,173,211,214,235,289,299,304,315,318,322,327,332,333},{0,11,44,74,85,120,123,124,163,167,184,188,228,246,260,267},{7,32,40,101,102,110,117,121,136,140,144,148,149,168,209,212,233,265,300,301,306,317,320,331,341},{30,86,90,117,141,147,156,169,193,211,229,243,304,316,321},{8,13,18,89,131,151,170,198,218,241,254,272,295,317,330},{5,25,39,50,55,85,87,89,103,118,119,132,133,145,162,171,193,194,216,236,267,294,300,316,323},{0,34,117,135,146,164,172,179,261,278,293,303,304,305,318},{21,42,67,73,97,123,138,139,157,163,165,166,173,211,214,235,289,299,304,315,318,322,327,332,333},{18,19,20,65,84,86,88,92,94,95,101,105,109,138,139,174,186,211,214,231,242,297,308,316,337},{1,22,39,41,45,64,85,100,104,118,119,124,129,137,159,175,182,213,251,261,263,265,316,335,340},{8,18,38,54,59,90,98,156,176,177,215,250,292,323,329,342},{8,18,38,54,59,90,98,156,177,176,215,250,292,323,329,342},{14,22,102,121,122,136,178,180,185,249,263,266,287,288,321},{0,34,117,135,146,164,172,179,261,278,293,303,304,305,318},{0,26,29,46,53,56,93,101,103,136,158,180,189,190,220,227,238,246,247,252,257,258,272,290,307},{1,4,19,39,52,117,145,157,158,160,181,194,195,207,222,234,247,248,268,277,284,285,300,302,305},{2,20,24,31,47,64,100,106,105,107,157,182,202,206,223,225,231,239,244,264,271,306,320,321,344},{12,48,70,72,75,96,100,152,181,183,232,276,295,329,334},{0,11,44,74,85,120,123,124,163,167,184,188,228,246,260,267},{0,66,96,107,116,118,143,164,185,199,204,226,237,276,296,311},{18,19,20,65,84,86,88,92,94,95,101,105,109,138,139,174,186,211,214,231,242,297,308,316,337},{33,68,81,100,138,146,152,159,187,214,235,241,255,261,303,324},{0,11,44,74,85,120,123,124,163,167,184,188,228,246,260,267},{0,26,29,46,53,56,93,101,103,136,158,180,189,190,220,227,238,246,247,252,257,258,272,290,307},{0,26,29,46,53,56,93,101,103,136,158,180,190,189,220,227,238,246,247,252,257,258,272,290,307},{1,40,45,86,104,106,112,137,144,191,199,200,218,219,222,231,248,262,268,269,284,286,302,309,336},{44,47,73,87,138,141,151,162,192,196,235,249,261,271,285,318},{5,25,39,50,55,85,87,89,103,118,119,132,133,145,162,171,193,194,216,236,267,294,300,316,323},{5,25,39,50,55,85,87,89,103,118,119,132,133,145,162,171,193,194,216,236,267,294,300,316,323},{1,4,19,39,52,117,145,157,158,160,181,194,195,207,222,234,247,248,268,277,284,285,300,302,305},{6,9,10,38,68,69,91,120,140,142,153,196,198,205,217,224,245,251,253,279,301,317,319,338,339},{2,27,43,64,79,126,128,130,136,137,154,161,194,197,201,208,213,220,234,250,259,300,307,310,335},{6,9,10,38,68,69,91,120,140,142,153,196,198,205,217,224,245,251,253,279,301,317,319,338,339},{1,40,45,86,104,106,112,137,144,191,199,200,218,219,222,231,248,262,268,269,284,286,302,309,336},{1,40,45,86,104,106,112,137,144,191,200,199,218,219,222,231,248,262,268,269,284,286,302,309,336},{2,27,43,64,79,126,128,130,136,137,154,161,194,197,201,208,213,220,234,250,259,300,307,310,335},{2,20,24,31,47,64,100,105,106,107,157,182,202,206,223,225,231,239,244,264,271,306,320,321,344},{3,21,23,41,42,48,66,70,84,88,125,137,147,160,203,215,269,270,281,286,288,298,303,314,319},{0,66,96,107,116,118,143,164,185,199,204,226,237,276,296,311},{6,9,10,38,68,69,91,120,140,142,153,196,198,205,217,224,245,251,253,279,301,317,319,338,339},{2,20,24,31,47,64,100,105,106,107,157,182,202,206,223,225,231,239,244,264,271,306,320,321,344},{1,4,19,39,52,117,145,157,158,160,181,194,195,207,222,234,247,248,268,277,284,285,300,302,305},{2,27,43,64,79,126,128,130,136,137,154,161,194,197,201,208,213,220,234,250,259,300,307,310,335},{7,32,40,101,102,110,117,121,136,140,144,148,149,168,209,212,233,265,300,301,306,317,320,331,341},{0,39,43,101,131,162,169,181,210,223,248,283,305,322,334},{18,19,20,65,84,86,88,92,94,95,101,105,109,138,139,174,186,211,214,231,242,297,308,316,337},{7,32,40,101,102,110,117,121,136,140,144,148,149,168,209,212,233,265,300,301,306,317,320,331,341},{2,27,43,64,79,126,128,130,136,137,154,161,194,197,201,208,213,220,234,250,259,300,307,310,335},{18,19,20,65,84,86,88,92,94,95,101,105,109,138,139,174,186,211,214,231,242,297,308,316,337},{8,18,38,54,59,90,98,156,176,177,215,250,292,323,329,342},{5,25,39,50,55,85,87,89,103,118,119,132,133,145,162,171,193,194,216,236,267,294,300,316,323},{6,9,10,38,68,69,91,120,140,142,153,196,198,205,217,224,245,251,253,279,301,317,319,339,338},{1,40,45,86,104,106,112,137,144,191,200,199,218,219,222,231,248,262,268,269,284,286,302,309,336},{1,40,45,86,104,106,112,137,144,191,200,199,218,219,222,231,248,262,268,269,284,286,302,309,336},{0,26,29,46,53,56,93,101,103,136,158,180,189,190,220,227,238,246,247,252,257,258,272,290,307},{0,4,5,30,99,108,150,195,221,232,233,247,266,274,326,334},{1,4,19,39,52,117,145,157,158,160,181,194,195,207,222,234,247,248,268,277,284,285,300,302,305},{2,20,24,31,47,64,100,105,106,107,157,182,202,206,223,225,231,239,244,264,271,306,320,321,344},{6,9,10,38,68,69,91,120,140,142,153,196,198,205,217,224,245,251,253,279,301,317,319,338,339},{2,20,24,31,47,64,100,105,106,107,157,182,202,206,223,225,231,239,244,264,271,306,320,321,344},{0,66,96,107,116,118,143,164,185,199,204,226,237,276,296,311},{0,26,29,46,53,56,93,101,103,136,158,180,189,190,220,227,238,246,247,252,257,258,272,290,307},{0,11,44,74,85,120,123,124,163,167,184,188,228,246,260,267},{30,86,90,117,141,147,156,169,193,211,229,243,304,316,321},{35,38,51,77,104,125,212,216,230,264,313},{18,19,20,65,84,86,88,92,94,95,101,105,109,138,139,174,186,211,214,231,242,297,308,316,337},{19,67,93,108,111,166,197,211,217,228,232,252,262,302,326,330},{7,32,40,101,102,110,117,121,136,140,144,148,149,168,209,212,233,265,300,301,306,317,320,331,341},{2,27,43,64,79,126,128,130,136,137,154,161,194,197,201,208,213,220,234,250,259,300,307,310,335},{21,42,67,73,97,123,138,139,157,163,165,166,173,211,214,235,289,299,304,315,318,322,327,332,333},{5,25,39,50,55,85,87,89,103,118,119,132,133,145,162,171,193,194,216,236,267,294,300,316,323},{3,18,71,76,84,102,113,139,140,156,180,193,237,246,263,270,273,275,285,287,291,301,316,324,325},{0,26,29,46,53,56,93,101,103,136,158,180,189,190,220,227,238,246,247,252,257,258,272,290,307},{2,20,24,31,47,64,100,105,106,107,157,182,202,206,223,225,231,239,244,264,271,306,320,321,344},{80,82,108,126,150,156,193,211,212,217,232,240,256,274,335},{33,68,81,100,138,146,152,159,187,214,235,241,255,261,303,324},{18,19,20,65,84,86,88,92,94,95,101,105,109,138,139,174,186,211,214,231,242,297,308,316,337},{30,86,90,117,141,147,156,169,193,211,229,243,304,316,321},{2,20,24,31,47,64,100,105,106,107,157,182,202,206,223,225,231,239,244,264,271,306,320,321,344},{6,9,10,38,68,69,91,120,140,142,153,196,198,205,217,224,245,251,253,279,301,317,319,338,339},{0,26,29,46,53,56,93,101,103,136,158,180,189,190,220,227,238,246,247,252,257,258,272,290,307},{0,26,29,46,53,56,93,101,103,136,158,180,189,190,220,227,238,246,247,252,257,258,272,290,307},{1,4,19,39,52,117,145,157,158,160,181,194,195,207,222,234,247,248,268,277,284,285,300,302,305},{19,44,87,108,138,141,142,183,187,211,232,249,266,310,334,339},{2,27,43,64,79,126,128,130,136,137,154,161,194,197,201,208,213,220,234,250,259,300,307,310,335},{1,22,39,41,45,64,85,100,104,118,119,124,129,137,159,175,182,213,251,261,263,265,316,335,340},{0,26,29,46,53,56,93,101,103,136,158,180,189,190,220,227,238,246,247,252,257,258,272,290,307},{6,9,10,38,68,69,91,120,140,142,153,196,198,205,217,224,245,251,253,279,301,317,319,338,339},{8,13,18,89,131,151,170,198,218,241,254,272,295,317,330},{33,68,81,100,138,146,152,159,187,214,235,241,255,261,303,324},{80,82,108,126,150,156,193,211,212,217,232,240,256,274,335},{0,26,29,46,53,56,93,101,103,136,158,180,189,190,220,227,238,246,247,252,257,258,272,290,307},{0,26,29,46,53,56,93,101,103,136,158,180,189,190,220,227,238,246,247,252,257,258,272,290,307},{2,27,43,64,79,126,128,130,136,137,154,161,194,197,201,208,213,220,234,250,259,300,307,310,335},{0,11,44,74,85,120,123,124,163,167,184,188,228,246,260,267},{1,22,39,41,45,64,85,100,104,118,119,124,129,137,159,175,182,213,251,261,263,265,316,335,340},{1,40,45,86,104,106,112,137,144,191,199,200,218,219,222,231,248,262,268,269,284,286,302,309,336},{1,22,39,41,45,64,85,100,104,118,119,124,129,137,159,175,182,213,251,261,263,265,316,335,340},{2,20,24,31,47,64,100,105,106,107,157,182,202,206,223,225,231,239,244,264,271,306,320,321,344},{1,22,39,41,45,64,85,100,104,118,119,124,129,137,159,175,182,213,251,261,263,265,316,335,340},{19,44,87,108,138,141,142,183,187,211,232,249,266,310,334,339},{5,25,39,50,55,85,87,89,103,118,119,132,133,145,162,171,193,194,216,236,267,294,300,316,323},{1,4,19,39,52,117,145,157,158,160,181,194,195,207,222,234,247,248,268,277,284,285,300,302,305},{3,21,23,41,42,48,66,70,84,88,125,137,147,160,203,215,269,270,281,286,288,298,303,314,319},{3,21,23,41,42,48,66,70,84,88,125,137,147,160,203,215,269,270,281,286,288,298,303,314,319},{2,20,24,31,47,64,100,105,106,107,157,182,202,206,223,225,231,239,244,264,271,306,320,321,344},{0,26,29,46,53,56,93,101,103,136,158,180,189,190,220,227,238,246,247,252,257,258,272,290,307},{3,18,71,76,84,102,113,139,140,156,180,193,237,246,263,270,273,275,285,287,291,301,316,324,325},{0,4,5,30,99,108,150,195,221,232,233,247,266,274,326,334},{3,18,71,76,84,102,113,139,140,156,180,193,237,246,263,270,273,275,285,287,291,301,316,324,325},{0,66,96,107,116,118,143,164,185,199,204,226,237,276,296,311},{1,4,19,39,52,117,145,157,158,160,181,194,195,207,222,234,247,248,268,277,284,285,300,302,305},{91,134,161,165,170,200,202,226,225,253,254,264,278,280,312,313},{6,9,10,38,68,69,91,120,140,142,153,196,198,205,217,224,245,251,253,279,301,317,319,338,339},{91,134,161,165,170,200,202,225,226,253,254,264,278,280,312,313},{3,21,23,41,42,48,66,70,84,88,125,137,147,160,203,215,269,270,281,286,288,298,303,314,319},{28,72,74,75,100,142,143,167,172,204,236,282,290,338,340,342},{0,39,43,101,131,162,169,181,210,223,248,283,305,322,334},{1,4,19,39,52,117,145,157,158,160,181,194,195,207,222,234,247,248,268,277,284,285,300,302,305},{1,4,19,39,52,117,145,157,158,160,181,194,195,207,222,234,247,248,268,277,284,285,300,302,305},{3,21,23,41,42,48,66,70,84,88,125,137,147,160,203,215,269,270,281,286,288,298,303,314,319},{3,18,71,76,84,102,113,139,140,156,180,193,237,246,263,270,273,275,285,287,291,301,316,324,325},{3,21,23,41,42,48,66,70,84,88,125,137,147,160,203,215,269,270,281,286,288,298,303,314,319},{21,42,67,73,97,123,138,139,157,163,165,166,173,211,214,235,289,299,304,315,318,322,327,332,333},{0,26,29,46,53,56,93,101,103,136,158,180,189,190,220,227,238,246,247,252,257,258,272,290,307},{3,18,71,76,84,102,113,139,140,156,180,193,237,246,263,270,273,275,285,287,291,301,316,324,325},{8,18,38,54,59,90,98,156,176,177,215,250,292,323,329,342},{0,34,117,135,146,164,172,179,261,278,293,303,304,305,318},{5,25,39,50,55,85,87,89,103,118,119,132,133,145,162,171,193,194,216,236,267,294,300,316,323},{12,48,70,72,75,96,100,152,181,183,232,276,295,329,334},{0,66,96,107,116,118,143,164,185,199,204,226,237,276,296,311},{18,19,20,65,84,86,88,92,94,95,101,105,109,138,139,174,186,211,214,231,242,297,308,316,337},{3,21,23,41,42,48,66,70,84,88,125,137,147,160,203,215,269,270,281,286,288,298,303,314,319},{21,42,67,73,97,123,138,139,157,163,165,166,173,211,214,235,289,299,304,315,318,322,327,332,333},{5,25,39,50,55,85,87,89,103,118,119,132,133,145,162,171,193,194,216,236,267,294,300,316,323},{7,32,40,101,102,110,117,121,136,140,144,148,149,168,209,212,233,265,300,301,306,317,320,331,341},{1,4,19,39,52,117,145,157,158,160,181,194,195,207,222,234,247,248,268,277,284,285,300,302,305},{3,21,23,41,42,48,66,70,84,88,125,137,147,160,203,215,269,270,281,286,288,298,303,314,319},{21,42,67,73,97,123,138,139,157,163,165,166,173,211,214,235,289,299,304,315,318,322,327,332,333},{1,4,19,39,52,117,145,157,158,160,181,194,195,207,222,234,247,248,268,277,284,285,300,302,305},{2,20,24,31,47,64,100,105,106,107,157,182,202,206,223,225,231,239,244,264,271,306,320,321,344},{0,26,29,46,53,56,93,101,103,136,158,180,189,190,220,227,238,246,247,252,257,258,272,290,307},{18,19,20,65,84,86,88,92,94,95,101,105,109,138,139,174,186,211,214,231,242,297,308,316,337},{1,40,45,86,104,106,112,137,144,191,199,200,218,219,222,231,248,262,268,269,284,286,302,309,336},{2,27,43,64,79,126,128,130,136,137,154,161,194,197,201,208,213,220,234,250,259,300,307,310,335},{0,66,96,107,116,118,143,164,185,199,204,226,237,276,296,311},{43,49,57,60,77,90,156,158,215,273,312,328,334,343},{35,38,51,77,104,125,212,216,230,264,313},{3,21,23,41,42,48,66,70,84,88,125,137,147,160,203,215,269,270,281,286,288,298,303,314,319},{21,42,67,73,97,123,138,139,157,163,165,166,173,211,214,235,289,299,304,315,318,322,327,332,333},{5,25,39,50,55,85,87,89,103,118,119,132,133,145,162,171,193,194,216,236,267,294,300,316,323},{7,32,40,101,102,110,117,121,136,140,144,148,149,168,209,212,233,265,300,301,306,317,320,331,341},{21,42,67,73,97,123,138,139,157,163,165,166,173,211,214,235,289,299,304,315,318,322,327,332,333},{3,21,23,41,42,48,66,70,84,88,125,137,147,160,203,215,269,270,281,286,288,298,303,314,319},{2,20,24,31,47,64,100,105,106,107,157,182,202,206,223,225,231,239,244,264,271,306,320,321,344},{2,20,24,31,47,64,100,105,106,107,157,182,202,206,223,225,231,239,244,264,271,306,321,320,344},{21,42,67,73,97,123,138,139,157,163,165,166,173,211,214,235,289,299,304,315,318,322,327,332,333},{5,25,39,50,55,85,87,89,103,118,119,132,133,145,162,171,193,194,216,236,267,294,300,316,323},{3,18,71,76,84,102,113,139,140,156,180,193,237,246,263,270,273,275,285,287,291,301,316,324,325},{3,18,71,76,84,102,113,139,140,156,180,193,237,246,263,270,273,275,285,287,291,301,316,324,325},{19,67,93,108,111,166,197,211,217,228,232,252,262,302,326,330},{21,42,67,73,97,123,138,139,157,163,165,166,173,211,214,235,289,299,304,315,318,322,327,332,333},{43,49,57,60,77,90,156,158,215,273,312,328,334,343},{12,48,70,72,75,96,100,152,181,183,232,276,295,329,334},{8,13,18,89,131,151,170,198,218,241,254,272,295,317,330},{7,32,40,101,102,110,117,121,136,140,144,148,149,168,209,212,233,265,300,301,306,317,320,331,341},{21,42,67,73,97,123,138,139,157,163,165,166,173,211,214,235,289,299,304,315,318,322,327,332,333},{21,42,67,73,97,123,138,139,157,163,165,166,173,211,214,235,289,299,304,315,318,322,327,333,332},{19,44,87,108,138,141,142,183,187,211,232,249,266,310,334,339},{2,27,43,64,79,126,128,130,136,137,154,161,194,197,201,208,213,220,234,250,259,300,307,310,335},{1,40,45,86,104,106,112,137,144,191,199,200,218,219,222,231,248,262,268,269,284,286,302,309,336},{18,19,20,65,84,86,88,92,94,95,101,105,109,138,139,174,186,211,214,231,242,297,308,316,337},{6,9,10,38,68,69,91,120,140,142,153,196,198,205,217,224,245,251,253,279,301,317,319,338,339},{6,9,10,38,68,69,91,120,140,142,153,196,198,205,217,224,245,251,253,279,301,317,319,339,338},{1,22,39,41,45,64,85,100,104,118,119,124,129,137,159,175,182,213,251,261,263,265,316,335,340},{7,32,40,101,102,110,117,121,136,140,144,148,149,168,209,212,233,265,300,301,306,317,320,331,341},{8,18,38,54,59,90,98,156,176,177,215,250,292,323,329,342},{43,49,57,60,77,90,156,158,215,273,312,328,334,343},{2,20,24,31,47,64,100,105,106,107,157,182,202,206,223,225,231,239,244,264,271,306,320,321,344}];
nr_cliques=345;
